benchmarks_vrp/CMT4/fixed_c_size/CMT4_5.vrp
NAME: CMT4_5
TYPE: CVRP
COMMENT: 1028.42 - Cluster Nr.5
DIMENSION: 8
CAPACITY: 200
EDGE_WEIGHT_TYPE: EUC_2D
NODE_COORD_TYPE: TWOD_COORDS
NODE_COORD_SECTION: 
3 63 69
7 57 68
6 52 64
5 62 63
8 63 65
4 35 35
1 62 77
2 49 73
DEPOT_SECTION: 
4
-1
DEMAND_SECTION: 
8 8
5 17
4 0
1 20
7 15
2 25
6 16
3 6
EOF
