benchmarks_vrp/CMT4/fixed_c_size/CMT4_5.tour
NAME: CMT4_5 solution
TYPE: TOUR
TOUR_SECTION:
4 2 1 3 8 5 7 6 -1
-1
EOF